dates = {'2022-01-18','2022-01-19','2022-01-20','2022-01-21','2022-01-22','2022-01-23','2022-01-24','2022-01-25','2022-01-26','2022-01-27','2022-01-28','2022-01-29','2022-01-30','2022-01-31','2022-02-01','2022-02-02','2022-02-03','2022-02-04','2022-02-05','2022-02-06','2022-02-07'};

daysOfWeek = [Tuesday,Wednesday,Thursday,Friday,Saturday,Sunday,Monday,Tuesday,Wednesday,Thursday,Friday,Saturday,Sunday,Monday,Tuesday,Wednesday,Thursday,Friday,Saturday,Sunday,Monday];

% For this week, how many people will be here.
numPeople = [162,162,162,163,162,162,162,167,164,167,164,164,164,158,160,160,155,158
,158,158,154];

% Physical workers need 50 to 100 % more nutrients per day.
numPhysicalWorkers = [56.5,56.5,56.5,56.5,56.5,56.5,56.5,57.5,57.5,57.5,57.5,57.5,57.5,57.5
,54.0,54.0,54.0,53.0,53.0,53.0,53.0];

% Males need +25% more nutrients per day.
numMen = [136,136,136,139,139,136,136,140,140,140,140,137,137,137,132,132,132,132
,132,132,132];

% Num people who do not eat categories. contains = {none, meat, milk, gluten, egg, nut, seed, sugars}
numRefusals = [| 0,0,12,0,0,4,11,9 | 0,0,12,0,0,4,11,9 | 0,0,12,0,0,4,11,9 | 0,0,0,0,0,9,0,0 | 0,11,0,0,3,1,0,1 | 0,11,0,0,3,1,0,1 | 0,11,0,0,3,1,0,1 | 0,1,0,2,0,8,14,1 | 0,0,8,0,4,2,0,0 | 0,6,0,2,8,3,0,8 | 0,10,0,0,20,1,0,0 | 0,10,0,0,20,1,0,0 | 0,10,0,0,20,1,0,0 | 0,0,0,0,0,2,9,7 | 0,3,0,1,0,2,7,0 | 0,3,0,1,0,2,7,0 | 0,0,4,0,3,17,0,0 | 0,4,2,0,0,0,6,4 | 0,4,2,0,0,0,6,4 | 0,4,2,0,0,0,6,4 | 0,15,0,0,0,0,12,0 |];

